@relation 'Leukemia_transformed_data_johnson_py(gene_index)-weka.filters.unsupervised.attribute.Remove-V-R1834,6855,3252,2354,4847,804,2121,1882,6041,4328,6281,1829,1725,760,4373,2363,2128,4377,4196,7119,1745,5501,6185,2288,6919,4366,4951,5772,6283,1909,6376,235,1779,461,1598,1704,1144,2642,4229,4211,4973,6967,2402,2020,6225,2141,6974,5552,1260,1685,3722,2111,3904,3507,1369,3320,4582,6806,2441,6347,5833,4116,1157,1962,5593,2497,5171,1630,3433,758,6005,4167,4535,6797,874,2348,2833,6702,3899,6803,1928,4894,1400,88,6573,6761,2439,4609,4291,5130,5377,1120,4472,5254,6201,6378,4438,5683,4082,4107,7130'

@attribute M23197_at numeric
@attribute M31523_at numeric
@attribute U46499_at numeric
@attribute M92287_at numeric
@attribute X95735_at numeric
@attribute HG1612-HT1612_at numeric
@attribute M63138_at numeric
@attribute M27891_at numeric
@attribute L09209_s_at numeric
@attribute X59417_at numeric
@attribute M31211_s_at numeric
@attribute M22960_at numeric
@attribute M14636_at numeric
@attribute D88422_at numeric
@attribute X62320_at numeric
@attribute M93056_at numeric
@attribute M63379_at numeric
@attribute X62654_rna1_at numeric
@attribute X17042_at numeric
@attribute U29175_at numeric
@attribute M16038_at numeric
@attribute Z15115_at numeric
@attribute X64072_s_at numeric
@attribute M84526_at numeric
@attribute X16546_at numeric
@attribute X61587_at numeric
@attribute Y07604_at numeric
@attribute U22376_cds2_s_at numeric
@attribute M65214_s_at numeric
@attribute M29696_at numeric
@attribute M83652_s_at numeric
@attribute D14664_at numeric
@attribute M19507_at numeric
@attribute D49950_at numeric
@attribute L41559_at numeric
@attribute M13792_at numeric
@attribute J05243_at numeric
@attribute U05259_rna1_at numeric
@attribute X52056_at numeric
@attribute X51521_at numeric
@attribute Y08612_at numeric
@attribute M15395_at numeric
@attribute M96326_rna1_at numeric
@attribute M55150_at numeric
@attribute M84371_rna1_s_at numeric
@attribute M63959_at numeric
@attribute M28170_at numeric
@attribute L06797_s_at numeric
@attribute L09717_at numeric
@attribute M11722_at numeric
@attribute U77948_at numeric
@attribute M62762_at numeric
@attribute U88964_at numeric
@attribute U62136_at numeric
@attribute L19437_at numeric
@attribute U50136_rna1_at numeric
@attribute X76648_at numeric
@attribute X14008_rna1_f_at numeric
@attribute S50223_at numeric
@attribute M63838_s_at numeric
@attribute U05572_s_at numeric
@attribute X12447_at numeric
@attribute K01396_at numeric
@attribute M33680_at numeric
@attribute D26156_s_at numeric
@attribute S76617_at numeric
@attribute Z49194_at numeric
@attribute L47738_at numeric
@attribute U57721_at numeric
@attribute D88270_at numeric
@attribute M32304_s_at numeric
@attribute X15414_at numeric
@attribute X74262_at numeric
@attribute J03801_f_at numeric
@attribute HG2788-HT2896_at numeric
@attribute M91432_at numeric
@attribute U16954_at numeric
@attribute X97267_rna1_s_at numeric
@attribute U88666_at numeric
@attribute M19045_f_at numeric
@attribute M31303_rna1_at numeric
@attribute X98411_at numeric
@attribute L21954_at numeric
@attribute AB002559_at numeric
@attribute U49020_cds2_s_at numeric
@attribute L11672_r_at numeric
@attribute S46622_at numeric
@attribute X78669_at numeric
@attribute X56468_at numeric
@attribute Z35227_at numeric
@attribute U07139_at numeric
@attribute J04615_at numeric
@attribute X68560_at numeric
@attribute D38073_at numeric
@attribute Y00787_s_at numeric
@attribute M83667_rna1_s_at numeric
@attribute X66401_cds1_at numeric
@attribute U19713_s_at numeric
@attribute X05908_at numeric
@attribute X07743_at numeric
@attribute CLASS {ALL,AML}

@data
-0.476778,0.697805,-0.466512,0.505223,-0.594971,0.728427,-1.252293,-0.556686,-0.974713,0.729646,0.382407,-2.151796,-1.473242,-0.595792,-1.838504,-0.78932,0.126375,-0.290969,-2.16545,1.438438,-0.918977,0.768691,-1.009614,-1.367184,-0.120727,-0.663096,-0.593829,-0.098168,0.208397,-0.05013,0.01353,-0.064584,-0.213216,0.827286,-3.285283,0.37252,0.362893,2.503604,-1.369302,-0.33306,0.331945,-2.762279,-0.406023,-0.606786,0.505895,-1.207053,-0.164664,0.756972,-0.364313,1.665005,0.104637,0.16231,1.264395,-0.472018,-1.264397,0.002496,0.176703,-0.768311,-0.419232,-0.242996,-1.05087,-1.120967,-0.19238,-0.490363,3.451705,-0.661773,1.043631,0.215716,0.537217,0.259974,-0.237192,-0.111018,-1.481783,-0.928115,-2.156724,-0.316941,-0.01017,-0.371169,0.150841,-0.693077,1.410302,-0.036121,-0.228635,0.127879,0.080527,0.733273,0.942026,-0.48405,0.132468,0.779669,0.840081,0.763902,-0.716515,-0.814714,-0.187449,-0.437148,0.926455,-0.224176,-0.668465,-0.450145,ALL
-0.801788,1.049685,-3.368956,1.02844,-1.339136,1.065983,-0.893085,-0.138351,-0.631667,0.947278,1.029416,-0.187838,-0.210668,-0.641858,-1.348916,-0.891128,-0.692232,-0.855017,-1.63425,1.077405,-0.581626,0.510856,-2.962421,0.007978,-0.524192,-0.650207,0.513804,0.645741,0.323358,0.473997,-1.011755,-1.951214,-0.83883,-0.18521,-1.816951,-0.557602,0.340739,2.31015,-0.122909,-0.66186,0.400138,-0.877735,-0.480732,-1.098821,1.128593,-1.814195,0.33844,-0.201021,-1.402988,1.684719,0.991109,-0.214138,1.490291,0.142057,-0.28229,-2.112265,0.46258,-0.202693,0.226276,0.859229,0.08651,-0.335424,-1.092541,-0.086469,1.003529,0.494653,1.234834,-0.15078,-3.041091,0.812642,-1.29543,0.328602,0.693601,-0.404595,-2.162412,0.37166,1.119175,0.073167,-0.796794,-0.312507,0.884475,-0.333862,0.269495,0.291977,0.481465,-0.295294,0.022847,0.031026,-0.238787,-0.522372,0.977552,0.458007,0.639693,0.659081,-0.587725,0.007397,1.695617,0.001367,-1.217415,-2.644864,ALL
0.442793,0.683436,-0.464309,0.66817,-2.695727,0.20178,0.312609,-0.167236,-1.440479,0.909506,-0.015916,-0.691496,-0.620956,-0.505322,-0.18759,-0.867067,0.706771,-0.388689,-0.865635,0.726308,-0.212568,0.740801,-1.328853,-0.649584,0.188644,-3.050376,-2.022885,0.262273,2.722846,1.778039,-2.395223,-3.12946,-0.023757,0.121439,-0.858024,0.541484,0.489233,1.742884,-1.402261,0.754574,1.071143,-1.044859,-0.512536,-0.040298,1.164416,-0.013832,1.463811,-1.180878,-1.091263,1.194218,0.328796,-2.10713,0.5437,0.387216,-0.922418,0.326341,-0.190971,0.079963,-1.009431,0.253322,-2.450525,-0.010882,0.080541,1.094181,1.087453,-0.727663,0.423081,0.114007,0.390325,1.643524,-0.427669,0.850585,-0.553272,0.096622,0.531914,0.779588,-0.720347,0.176955,1.236296,0.167766,1.455573,-0.074036,-0.613167,0.200479,0.265724,-0.029855,0.244044,-0.925054,-0.268786,0.35175,0.419951,-0.231261,-0.021665,0.320663,-0.42969,-2.854347,1.244185,-0.724403,-1.312967,-0.954301,ALL
-1.501085,2.01175,-0.743054,1.158852,0.450385,0.97453,-0.411916,-0.238415,-0.001152,1.23886,0.689543,0.143173,0.25485,-0.240477,0.10672,1.908811,-0.903504,0.436477,0.008504,0.393479,-0.061936,1.174711,-0.395407,0.16816,-0.01338,-0.178065,-0.705724,1.939701,0.595805,0.61258,0.196677,0.858779,-0.356304,0.275103,1.376306,1.288736,1.074671,1.009266,0.252649,1.39527,1.142504,-0.229709,-0.418456,-0.107906,-0.566837,0.229613,-0.164664,1.132556,0.540947,0.968469,1.819941,0.039557,0.298764,1.404239,0.719322,-0.095661,1.544144,0.074138,0.963358,0.976014,-0.21855,0.631975,0.217917,1.67526,0.164073,2.756948,0.540903,0.728658,-0.324473,1.673035,-0.807094,1.260482,1.091556,0.217809,0.3883,1.442723,0.223414,1.041714,0.560152,0.102957,0.669292,0.141858,-0.324588,-0.029499,1.953834,-0.331873,0.885308,0.281101,1.369826,0.048344,1.695239,-1.219495,1.618557,0.21902,-0.395523,-0.328433,1.081996,-0.157837,0.534321,0.445354,ALL
0.020161,0.552988,-0.581499,0.831215,-0.505522,0.620961,-0.586034,-0.193333,0.16461,0.158525,0.747139,-0.601105,-1.390524,-0.322539,-0.732531,-0.855407,0.247835,-0.31949,-1.577527,0.971355,-0.270315,1.68951,-0.672246,-1.141499,-0.581442,-0.452344,-0.872698,0.416103,1.465183,1.270659,-0.439153,-0.529314,-0.373155,-0.431153,-0.659614,0.086507,0.055645,1.751141,-0.666791,0.904262,1.142504,-0.871784,-0.370138,-0.543349,1.469573,-1.095146,1.227665,1.147728,-1.01669,0.354776,0.564544,-1.049334,1.919308,0.461996,-1.527991,0.005117,1.206786,-1.075073,0.404125,1.978548,-1.59176,-1.814735,-0.776596,0.299923,0.806082,-0.572111,2.233296,-0.162745,-0.07753,0.246384,-0.719936,1.245303,0.822544,-0.676037,-0.095736,0.729372,0.511231,0.296693,1.17677,-1.380595,0.741424,0.473223,-0.151673,-0.748313,1.121673,1.704017,1.342437,1.497829,0.691127,-0.168525,-0.992822,0.66397,0.937976,0.835909,-0.355944,-1.069409,0.858333,0.592185,-1.411037,-0.285102,ALL
-1.831595,-0.054714,-0.694684,0.352736,-0.542609,0.663954,-0.168243,0.012892,-0.556441,0.589243,-0.086094,-0.754938,-0.813233,-0.247587,-0.234681,-1.043618,-0.563188,-2.937911,-0.954047,0.486343,-0.431959,-0.516938,0.439476,0.001278,0.086075,-0.367721,-0.041981,0.499847,0.466499,0.531528,0.248949,-0.302395,-0.355798,-1.020366,-0.102346,1.855192,1.756143,-0.859942,-1.771217,-0.022651,-0.378463,-0.13495,-0.341604,-0.459018,-0.584052,-0.806727,-0.131907,-0.362484,-1.819137,0.090259,-0.26164,-1.841665,-0.055023,0.302374,-1.346269,-0.404993,-0.349315,0.517796,0.363486,-0.242996,-0.638827,-0.911097,0.675246,-0.616835,0.79172,-0.357231,-0.406214,1.453381,-0.399584,-0.803513,-0.158012,0.411822,0.76148,0.400402,-0.472094,0.004187,0.569345,-0.056949,0.408022,0.321559,1.238686,-0.255913,-0.954619,-0.205623,-1.170846,0.185439,-1.015163,-0.900961,0.245277,1.074017,0.792587,0.718482,-0.860301,1.266319,-0.419463,0.207031,0.242668,0.555738,0.163671,-1.259561,ALL
-0.693106,-0.323533,-0.462113,1.144458,-0.832434,0.850063,-0.519074,-2.550856,-0.711677,1.223329,1.462039,-0.810162,-0.635036,-0.711289,-1.338953,0.048285,-0.333638,-0.825217,-0.412823,1.325862,-1.960209,0.049311,-0.59388,-0.464431,-0.383356,-0.567384,0.302866,0.307282,-0.053458,0.478868,-1.60222,-0.699334,-0.401026,-0.93703,-0.406351,1.186074,1.617796,-0.947548,-1.20553,1.922368,1.048138,-0.820297,-0.380392,-0.483789,-0.869396,-0.484274,-0.648599,0.251119,-0.138853,-0.455598,0.450288,0.288946,-0.639868,-0.923989,-1.364321,-0.795848,-0.080327,-0.736981,0.969719,-0.613726,-0.385184,-0.407227,-1.489357,-0.102801,1.206994,-1.38162,-0.117064,1.767416,-0.229973,-0.727895,-0.168793,-0.137312,0.37819,-0.63987,0.053627,0.122777,2.681591,-0.660386,0.049405,-0.642473,0.480912,-1.098902,-0.891007,-0.98976,-0.4567,1.25208,0.045102,1.11351,1.500711,1.31588,0.805553,1.028371,0.07026,0.632181,-0.017491,-1.083374,-2.242658,0.087412,0.888508,-0.483347,ALL
-0.264516,0.659461,-0.622606,0.410399,-0.150075,0.290733,-0.124914,-0.291302,-0.84358,1.115577,0.918604,-0.643401,-1.18866,-0.384304,-0.917568,-0.470947,-0.100974,-0.480122,-0.476023,1.410119,-0.468765,1.190426,-0.617605,-0.238818,-0.130789,-0.794966,-2.270474,0.871583,0.998196,0.720229,-0.54399,-1.091115,0.358603,-1.109577,-0.512828,1.369815,0.772185,0.364469,-0.764576,-0.222536,0.016398,-0.305198,-0.442293,-0.423423,0.912677,-0.430153,1.080343,0.594653,-0.138853,1.250341,1.180374,-1.581235,0.724806,0.867702,-0.765294,-0.432835,1.435021,-0.966342,0.291803,0.840824,-0.821248,-0.110628,-0.639318,0.617857,1.389996,1.221539,1.405583,0.30583,-0.772181,0.779462,-1.528872,1.295718,1.034454,-0.630832,-0.773971,0.882352,-0.053893,1.110236,1.278331,-0.985275,0.395549,-0.379142,-0.448334,-1.03772,1.692676,0.827366,0.022847,0.451275,0.953319,0.807619,0.504319,0.384941,1.496143,0.188776,-0.557167,0.075047,0.583613,-0.89819,-0.331315,-0.430885,ALL
-0.701742,1.485811,-0.589914,-1.352868,-0.687078,-0.551041,-2.342825,-0.860933,-0.576052,1.031785,0.974505,-0.462211,-0.331637,-0.401094,-2.548407,-0.684968,-0.700748,-0.144641,-0.138627,2.403472,-0.091619,1.777419,-0.920307,-0.459706,-2.058722,-1.495661,-1.858198,2.099248,0.261022,0.383952,-0.040933,-1.107993,-0.876099,-0.783983,-0.606428,-0.005408,0.044862,0.115176,-0.592125,-0.02832,1.705096,-0.760429,-0.477232,-2.64601,0.075259,0.771506,1.68538,0.918769,0.333082,-0.079789,0.221921,-0.07354,-0.436199,1.238413,-0.237982,-1.382457,1.47657,-1.070642,0.58773,-0.645592,-0.003338,-1.97956,-1.839324,1.686988,-0.408755,0.228436,0.240591,1.197852,-1.871186,1.967633,0.334324,0.350341,0.122533,-1.21019,-1.533835,0.919655,1.353106,-1.240485,0.744655,-1.261677,-0.219824,-3.126956,-0.908082,-3.36969,0.303982,1.725805,0.104296,1.92837,1.72587,-1.263644,-0.119514,3.112273,0.617038,1.154319,-0.483692,-0.412674,-0.859328,-1.566228,-0.343015,-0.494775,ALL
-0.801788,1.018667,-0.514746,0.936545,-0.412035,-0.164059,-0.679826,-0.276637,-0.238856,0.258044,0.869489,-0.631238,-0.304072,-0.537675,-0.192907,-0.783306,-2.47831,-0.055579,-0.209746,1.334128,-0.531236,0.351762,-0.658116,-0.044214,-0.374656,-0.178065,-0.586625,0.48209,0.017462,0.752038,-0.414926,-0.975573,-0.308755,0.016982,-1.237943,0.122168,0.912184,1.506391,-0.053178,0.854116,0.769632,-0.731876,-0.576648,-0.892622,1.743839,-0.040695,1.611801,1.091048,-1.553037,0.920219,0.1227,-0.584876,0.323236,0.005298,0.006545,-0.466145,0.938317,-1.265591,-0.188851,0.273382,0.102971,0.12598,-0.227973,0.359559,1.482005,0.251707,2.074849,0.108439,-0.292299,1.619869,-1.135005,0.764331,0.040664,-1.213298,0.074034,0.497593,-0.371784,1.406868,-0.364189,-1.549482,0.033684,-0.228709,-0.35012,-1.114554,0.457539,1.134846,1.32849,0.23865,-1.052122,0.695935,1.861821,0.199901,-0.753102,0.246578,-0.439015,-0.480391,1.185328,-0.680337,-1.511514,-0.499404,ALL
0.739748,-0.665893,2.545589,-1.056403,1.075662,0.161219,0.386983,-0.253093,0.450713,-1.057805,-0.670036,0.929154,0.704777,-0.368098,0.28823,1.12655,0.089153,0.702818,-0.640413,-0.755483,-0.010471,-1.316073,-0.601696,0.627402,-0.751028,1.080841,1.833325,-0.886631,0.038204,-1.010223,0.357263,0.565027,2.669664,0.527379,-0.080122,-0.702943,-0.564764,-0.834841,0.461485,-0.356894,0.188647,-0.631967,-0.068281,0.588993,-1.048869,0.423113,-2.376323,-1.798488,0.613579,-0.714486,-0.585241,0.872304,0.590221,-1.13212,-0.114969,-0.131855,-2.408236,0.431218,-1.094296,-1.0744,-0.016034,0.88458,-0.075349,-0.180174,0.106115,-1.337733,-1.113692,-0.750855,0.416483,-0.689641,0.607757,-0.553647,-0.925031,0.583615,0.692042,-0.019795,-0.870371,-0.129483,-1.066293,0.37308,-0.61824,0.156295,-0.515755,0.682414,-0.346174,-0.61066,-0.22417,-1.172848,-0.429243,-0.113347,-0.039741,0.170165,-0.852397,-1.301006,1.899028,0.558275,-1.528781,-0.861867,0.850749,0.478575,AML
0.304627,-0.49011,-0.322741,-0.968274,-0.339554,-1.24487,-0.232367,0.188203,0.029546,-0.180362,-0.549033,-0.464492,-0.152638,-0.452817,-0.665704,0.204426,0.458029,0.548577,0.349385,-0.313579,-0.065847,-0.190277,0.052369,-0.64458,-1.23097,-0.136622,1.663094,-0.985836,-0.944539,-0.745709,0.37662,-0.43343,-0.296703,-0.55378,-0.580825,-1.228128,-0.689678,-0.680929,-0.458369,-1.050618,-1.393828,0.272148,-0.467413,-0.332318,-0.841285,0.21278,-1.734273,-0.661368,-0.441395,-0.699016,-0.113201,-0.826485,-1.35089,-0.331151,0.293272,-0.517289,-0.902811,-0.628421,-0.533882,-0.852169,0.123695,0.22015,-0.565518,-1.196024,-0.660637,0.068125,-0.26331,-0.417161,1.051054,-0.548138,-1.392673,0.411822,0.531164,-0.456696,0.850661,-0.216698,-0.386667,-0.480182,-0.607457,-0.419022,-1.197225,0.047523,-0.365489,-0.453362,-0.738118,-1.597719,-0.998759,-0.455302,-0.069537,0.400836,-0.650394,-0.213321,-0.975375,0.515355,-0.231794,0.263574,-0.935298,0.055272,-0.267059,-0.532896,AML
1.161607,-1.45619,1.011842,-0.952908,0.633341,-1.934938,1.268187,0.36267,0.926269,-1.749874,-2.100415,0.956351,2.256903,0.980296,1.09504,0.99782,1.07048,0.249801,1.408238,-1.017375,-0.097655,-0.732515,0.984524,1.759685,1.546388,0.359058,2.179142,0.040455,-1.544522,-2.045756,-0.092354,0.560277,1.12467,-0.195797,0.706,-1.289479,-1.235529,-0.928615,0.408376,-2.490221,-0.842777,0.175415,3.3038,0.405256,-0.959934,0.507147,-1.522419,-1.209617,0.677278,-0.825275,-1.279459,0.085475,-1.692412,-1.270625,1.000882,-0.613204,-0.926784,0.094604,-0.806753,-0.844236,1.075076,1.381806,0.731793,-1.297306,-0.831887,-0.479627,-0.834075,-1.21313,-0.399584,-0.705089,0.116024,-0.93846,-0.826491,0.395695,-0.322298,-1.023406,-1.053306,-1.018833,-1.609381,0.013084,-1.050349,0.405949,0.982056,-0.014129,-0.506389,-1.379169,-2.5459,-1.738155,-1.990982,-1.016301,-0.526755,-1.756926,-0.222222,0.13903,-0.476995,0.581105,-1.132981,0.276658,0.048327,0.156543,AML
1.101842,-0.232052,-0.315433,-0.789705,1.12868,0.234787,1.476473,1.499962,0.775048,-0.875496,-0.078605,0.672623,1.184321,-0.03164,1.111266,0.120794,0.394628,0.781177,0.326377,-0.274152,1.780688,-0.466985,1.153519,0.177839,0.327037,-0.136622,-0.129919,-0.782921,0.335373,-0.673405,0.448877,0.234207,-0.303785,1.143589,1.401788,0.374156,0.087857,-0.845806,0.410017,-0.195774,-0.660858,0.831344,-0.327218,0.953236,-0.20024,-0.018274,-0.975215,-0.393401,0.450661,-0.265059,0.743054,1.783194,-0.389477,-0.462217,0.756804,1.334055,-1.181371,1.074871,0.205441,-0.90571,-0.931924,0.322135,0.962234,0.532257,-0.515675,-1.522985,-0.756366,0.001158,0.426845,-0.606641,0.799201,-0.396449,-0.890124,1.308188,0.239471,-0.195502,-0.703072,0.116491,0.281708,1.362135,-0.487462,1.272803,0.473674,0.667056,-0.053654,0.636937,0.207379,0.716381,0.182224,0.318108,-1.454026,1.415414,-0.538736,-1.135409,1.762286,0.525606,-0.363986,1.859732,0.401156,0.202925,AML
0.488535,-1.484029,0.48287,-0.951891,0.79616,-0.438286,1.443598,1.600757,1.207367,-1.651004,-1.012182,0.988895,-0.108384,1.524482,1.657943,0.359761,1.53939,1.60524,1.341047,-1.033877,1.647997,-2.045468,1.369568,1.331921,1.730281,0.114699,1.384167,-2.013596,-0.619022,-0.413804,0.034969,0.20916,-0.085635,1.479043,1.035105,-1.642068,-1.034356,-0.899474,1.120717,-1.022459,-0.144512,0.340107,1.086691,1.645352,-0.952363,0.735545,-0.69573,-0.753114,1.074564,-0.673496,-1.138718,1.575558,0.910581,-0.727659,0.933915,1.336905,-0.803821,1.940301,-1.13737,-0.062868,1.005092,0.860554,1.286863,-0.547977,-0.531474,-0.495614,-1.732822,-2.818245,1.612091,-0.621653,0.881055,-1.572712,-1.782691,2.019262,1.30668,-1.115531,-0.185015,-0.995479,-0.664369,1.922722,-1.132097,0.786177,0.418752,1.116295,-2.439802,-1.13452,-0.780972,-0.272788,-0.019257,-0.213619,0.280231,-1.964571,-0.775467,-1.09872,2.437541,1.317224,-1.370465,0.386407,1.342242,0.521104,AML
-1.519221,0.693593,-0.578734,1.199257,-0.538919,0.461567,-0.83804,-0.866515,-0.382698,0.416726,0.787593,-0.297478,-0.230332,-0.202966,-0.79093,-0.212412,-0.854665,-1.002812,-0.505267,0.315752,-0.006753,0.836297,-0.727849,-0.277692,-0.949249,-0.480938,-0.242622,0.842628,-0.049268,1.912024,-1.376348,-0.156427,-0.399292,-2.513609,-0.139648,0.518174,0.064612,0.358199,0.119872,1.07884,0.787007,-0.613673,-0.389151,-2.088156,0.683275,-1.265955,-0.085616,0.593723,-0.594932,-0.194162,1.164109,-0.479159,0.290973,0.260959,-0.254141,-1.256137,0.234788,-0.444025,0.053859,0.07787,0.874884,0.231226,-1.819615,1.853793,0.187641,1.508872,0.336829,0.123733,-1.114104,0.798403,-0.8103,0.261084,0.7153,-0.404595,-1.595506,0.628907,0.161985,1.0771,-0.090691,-0.504257,0.05462,-1.502186,-0.391669,-0.14902,0.758909,-0.438276,-0.066495,0.667661,0.255272,-0.204487,1.321761,-0.122334,1.143478,0.717597,-0.615478,0.017332,0.312422,-0.806431,-0.147208,-0.497085,ALL
-2.473623,0.196811,-1.020724,1.28622,-0.726249,-0.00273,-0.253441,-0.284649,-0.62971,0.515958,0.382407,-0.106785,-0.502913,-0.969031,0.54962,-0.606868,-0.658718,-0.763215,-1.360191,-0.89142,-0.878351,0.292263,-0.134059,-0.159664,-0.581442,-0.765001,-1.319869,0.287613,-0.537962,0.417709,-0.015691,-0.366818,-0.588482,-0.372642,-0.021382,-0.021771,-0.253989,0.293714,-0.359561,0.553521,0.047128,-0.248701,-0.525791,-1.27195,0.768138,-0.546771,0.891061,0.511116,-0.582511,0.91483,0.120701,-1.599319,0.441311,0.212096,-0.892101,-0.868373,-0.207779,-0.883437,0.089493,-0.035257,0.308744,-0.7747,-1.726371,0.305809,-0.857185,0.727748,0.090746,-0.164243,-1.796479,0.698234,-0.608923,0.753079,-0.662118,-0.490152,-1.829644,-0.114239,-0.004382,0.864669,-1.203777,-0.8582,-0.94623,-0.711843,-0.308908,-0.598128,0.288218,-0.170382,0.287941,-0.877192,-0.700281,-1.038027,1.607488,0.126409,-0.298579,0.186432,-0.596704,-0.334375,0.978395,0.203638,-0.863183,-0.189766,ALL
-0.018117,0.531487,-0.315433,0.052176,-0.607569,0.403135,-0.199443,-0.125324,-0.511615,-1.473684,-0.725932,-0.712822,-0.191171,-0.306239,-0.677039,-0.901793,-0.185933,-0.781936,-0.555633,0.44657,-0.826826,0.097067,-0.904581,0.107131,0.329152,-0.627562,-1.706738,-0.077023,0.496042,0.054386,-1.298372,-1.245863,-0.272833,-1.812942,-0.593526,0.268045,1.278272,0.715968,-0.178656,-0.56918,0.35316,-0.750137,-0.357322,-0.508811,1.369927,-0.669589,2.09133,-0.237198,0.341588,0.690191,0.197118,-0.400304,0.716384,-0.210426,-0.9744,-0.203437,-0.102749,0.0324,-0.365414,0.447135,-1.091955,-0.335424,-0.075349,0.845544,0.70876,0.651059,0.365869,0.443696,-0.652955,0.73435,-1.064867,-0.139072,0.219542,-0.142047,-0.149363,0.185605,0.108777,0.67353,-0.199776,-0.05051,0.29198,-0.076776,-0.652315,0.375794,0.387984,-0.464383,0.476965,0.679914,-0.77827,-0.1105,1.228735,-0.377578,0.409799,0.349194,-0.573953,0.158326,-0.129633,-1.09078,-1.312967,-2.331726,ALL
-0.97786,0.512529,-0.584283,-0.245412,-0.710875,-0.381414,-0.790583,-0.213006,-0.711677,0.135845,-0.045204,-0.260619,-0.41757,-0.42363,-1.364007,-0.787813,-0.835608,-0.684711,-1.25556,0.27036,-0.1346,0.027278,-0.254392,-1.355721,-0.648033,-0.567384,-0.18104,-0.021012,1.602578,0.139917,0.020413,-0.285139,-0.105105,-1.459507,-0.21538,0.264432,-0.449154,0.704212,-0.314301,-0.311219,0.415572,-0.237724,-0.388225,-1.354329,0.894042,-1.63222,0.699006,-0.706473,-0.983361,-0.141046,-0.799167,-0.720597,0.07543,-0.349206,-2.081972,-0.68587,-0.034236,0.066922,-0.169909,0.45103,-0.097335,-0.860958,-1.012979,0.476086,-0.538519,0.674443,0.835242,0.237398,-0.738514,0.645587,-1.304402,0.074606,-0.392389,0.025132,-0.907137,-0.320817,-0.206796,2.10232,0.303064,0.176982,-1.295801,-1.005063,-0.425562,-0.111448,-0.477665,-0.328956,-0.269554,-0.740735,-0.300515,0.318108,0.06614,0.139567,-0.798154,-0.211487,-0.407275,-0.517861,-0.277481,-1.482621,-1.241061,-0.467665,ALL
0.201245,-0.359123,-0.425855,0.86863,-0.49767,1.324042,0.393014,-0.208276,-0.684706,1.477461,0.596632,-0.747205,-2.997197,-0.235206,-0.855841,-0.898211,0.735984,-1.845955,-1.160543,-0.146,-1.22411,0.373036,-0.084728,-1.791389,-0.336444,-0.26641,-0.012565,0.942931,0.917461,0.604939,-1.191691,-0.943503,-1.343397,-0.843293,-0.065368,1.880551,1.777833,-0.67856,-2.510143,0.7751,-0.424092,-0.713934,-0.265763,0.624156,-0.139733,-0.605297,0.351261,0.116674,-1.131582,0.21249,0.660383,-1.5406,0.447338,0.518034,-0.081644,0.335261,1.068035,-0.09781,2.078869,0.4821,-1.227071,-1.184327,-0.048722,-0.639679,0.616458,-0.170063,-1.247643,2.362992,0.497819,-0.317173,0.369933,1.379028,1.435173,0.293277,-0.051497,1.573252,2.019949,0.100908,2.243989,0.369571,2.085701,0.134595,-0.231233,-0.010727,-0.436205,1.114295,0.397224,0.471024,1.513965,1.413764,0.566023,1.71293,0.438896,1.528001,-0.372104,-2.755826,0.390757,-1.061332,1.486971,-0.50877,ALL
-0.022468,1.024106,-0.438434,0.392587,-1.627152,0.73382,-0.086142,-1.62447,-2.807138,-0.293572,-0.382921,-2.215352,-1.268502,-0.413475,-1.314376,-2.563589,-0.197045,-1.077198,-1.676414,-0.531286,-0.607824,1.306501,-0.750426,-3.484175,-0.910705,-1.611528,0.10611,1.007279,1.443628,0.307853,-0.590277,-0.032714,-3.311235,-1.037697,-0.080122,0.043738,0.089641,0.476377,-0.622768,1.012646,0.821355,-1.057252,-0.258809,0.550315,0.441999,-0.562805,0.570559,1.528988,0.324559,0.567541,1.15006,-0.300498,1.215061,0.102365,-1.091784,0.616131,0.777839,-0.115538,0.5447,0.551484,-0.127253,-2.205367,0.242814,0.062865,0.003233,-0.551893,0.696856,1.294541,0.160269,-0.012971,1.121825,0.422487,-0.062491,-0.139014,-1.093687,0.705061,0.197097,0.234918,0.418357,-0.033071,0.933404,0.191871,-0.86885,0.485996,0.653015,1.755005,0.104296,0.799836,0.131498,1.123718,-0.027633,0.216526,-0.281916,-0.83022,-0.299457,-1.716291,0.274289,-1.966398,-1.486174,-0.485616,ALL
-0.594738,1.059003,-0.53679,1.896781,-0.225421,1.565992,-1.60479,-0.715174,-0.172973,1.481289,0.923728,-0.767908,-0.649651,-0.674735,0.125715,-0.421546,-0.692232,-0.195931,0.054567,0.690436,-0.492104,1.31931,-0.281802,-0.247384,-0.997654,-0.498754,-0.900484,1.007593,0.407129,0.371453,-0.138454,-0.464624,-0.395997,-0.122702,-0.381433,0.530246,0.247849,0.750794,0.32737,1.273775,0.630149,-0.389871,-0.529834,-0.802814,0.502208,0.331599,-0.071834,1.580973,0.220861,1.902233,0.467032,-0.109726,-0.676086,1.563074,-0.286762,-0.640796,0.505814,-2.434317,1.296043,2.090581,-0.08743,-0.194103,-0.916776,0.87696,0.803473,1.238242,0.706115,-0.185295,-0.612242,1.601982,0.319559,1.131218,1.033677,-2.012315,-0.576599,0.951822,0.387247,0.825106,0.418357,-1.813322,1.178959,-0.898332,-0.460971,-0.82258,1.065454,1.230436,2.653027,0.309038,0.988949,0.337125,0.071578,0.275479,1.191425,2.193383,-0.485208,-0.749937,1.474581,-0.331609,-0.883884,-0.056454,ALL
-0.684541,0.422994,-0.479895,-0.558559,-0.44119,-0.103278,-1.798748,-0.299262,-0.75139,-0.826702,0.506454,-0.604701,-0.502913,-2.39645,0.179133,-0.64867,-1.467175,-0.896021,-0.476023,-0.846728,0.080606,-0.694926,-0.361408,-0.131596,-0.895713,-0.221964,-0.886557,-0.671872,0.715716,-2.503348,-0.932213,-0.483675,-0.313443,-0.164183,0.101286,-0.413746,-0.64159,0.275067,-1.068937,0.650761,-0.551174,-0.681794,-0.88958,-0.355864,0.046921,-0.936302,0.402348,-0.967814,0.068896,-1.755469,-0.477345,-1.717577,-0.018157,-0.090981,-0.68061,-0.339533,-0.017018,-0.144125,-1.268837,-0.214315,-0.02242,0.675516,-0.894267,-0.166328,-0.415557,0.503318,1.532345,-0.018931,0.909708,-0.762428,-2.58115,0.133953,0.285844,-0.421004,-0.782566,0.995895,0.10528,-0.089659,-0.429809,-0.416967,-0.351632,-1.270598,-0.609824,-0.406442,0.028228,-1.295243,-0.678183,-0.634077,-0.269996,-1.140279,1.007498,-0.183832,-0.384536,0.383827,-0.470488,-0.263887,0.741955,-1.096738,-1.460981,-0.639963,ALL
-1.012174,-0.371815,-0.557263,0.556254,-1.149345,0.599083,-0.720691,-0.158742,-0.610303,-0.10028,0.055733,-0.855155,-0.395549,-0.541061,-0.778381,-1.946483,0.076417,-2.000546,-1.575074,0.753598,-2.626263,-0.711386,-0.549613,-1.0973,-2.433469,-0.773535,-0.370543,0.407692,0.33137,0.67496,-0.000425,-0.366818,-0.633865,-0.858496,0.625736,1.61058,-0.343378,-0.569534,-2.141745,-0.699137,-0.542987,-0.750137,-0.284569,-0.219753,-0.489175,-1.090644,-0.231205,-0.09613,-0.109642,-0.444708,-0.256741,-1.389272,-0.755209,0.353893,-1.661874,-0.595046,-0.635315,-0.205061,1.133926,-0.159665,-1.526755,-1.775201,-1.593,-0.065311,1.302739,-0.515656,-1.654144,0.182991,-0.917232,-0.960273,-0.869183,0.496382,0.258623,-0.123475,-1.518819,-0.372355,0.456573,-0.579545,1.028733,-0.094204,1.146577,-0.595858,-2.872143,-0.769614,-0.806922,0.683705,-0.422019,-0.35306,0.328072,0.255127,-0.774889,0.029076,-0.598064,0.394544,-0.463461,-1.034621,-1.200333,-0.34274,-0.597579,-0.560913,ALL
0.9353,-1.167947,1.209674,-1.059769,0.923447,-0.431863,0.807762,1.693417,0.463224,-1.839568,-0.815983,-0.734393,0.651533,0.761713,1.283127,0.412868,0.760334,0.495366,0.434597,-2.200446,0.701773,-1.45715,1.106188,1.214845,1.039278,-0.072312,0.768984,-1.30515,-1.043385,-1.479031,1.341275,0.498242,1.53402,0.327345,1.254777,-0.560792,-0.871483,-0.645942,0.973197,-1.299491,-0.767927,1.212374,-0.019123,1.14275,-2.362816,0.233325,-1.467279,-1.176363,0.409029,-0.802974,-1.911478,-0.101752,-0.600209,-0.48188,0.263175,1.229882,-0.688057,1.751708,-1.975672,-0.524664,1.023794,0.539003,1.743466,-2.624632,-0.831887,-0.649481,-0.41496,-1.16187,1.092487,-0.667213,0.602085,-1.032549,-1.989118,1.853937,0.903786,-1.590762,-0.440019,-0.242595,-0.781763,1.879737,-0.935225,0.325166,0.60551,2.464245,0.569569,-2.106222,-0.957929,-0.542753,-2.108244,-1.088202,-0.365658,-0.475332,-0.638873,-0.84586,0.200393,0.908032,0.260982,0.292201,0.175842,0.299539,AML
1.851093,-1.222131,2.255978,-0.682634,2.324607,-0.636586,1.308789,2.229076,2.853376,-0.687903,-1.481443,1.455898,1.422942,2.264668,1.954292,0.186302,0.708758,0.823789,0.786137,-0.161247,1.783392,-0.714701,3.014857,1.485322,1.173372,2.284655,0.100103,-1.339463,-0.598664,-0.481763,3.641816,3.082658,0.668415,1.082484,0.429278,-0.75791,-1.300632,-0.82013,2.690754,-0.132121,-0.283036,1.885404,-0.073188,0.900651,-0.016609,1.177349,-0.873003,-0.378787,1.399591,-0.784724,-0.106419,1.898941,-0.382107,0.759659,1.497173,1.310413,0.786045,1.328941,-2.023773,0.981447,1.612654,1.205976,1.864718,-0.602787,-0.301614,-1.342115,-1.006657,-0.722352,3.457876,-0.566694,1.564718,-0.074522,0.185093,1.330834,1.567804,0.095589,-1.786454,-1.790127,-0.224522,1.25403,-0.740537,2.958801,2.551817,1.640191,0.719909,-0.844423,0.052513,-0.49372,-1.160134,-0.423626,-1.199206,-2.256494,-0.059892,0.119779,1.397377,3.135663,0.24144,2.20053,0.878001,1.324138,AML
0.910301,-1.119616,0.356002,-1.210677,1.642089,-1.418211,1.302931,1.326195,2.701176,-0.564493,0.675659,0.497548,2.252268,1.06385,0.825355,1.159807,1.324438,1.081754,1.156733,-0.516931,0.522765,-0.872493,0.679368,0.992784,0.838785,1.372935,1.767737,0.231024,-0.768003,-0.789277,0.961902,2.42109,2.206371,0.752962,1.755119,-1.828208,-0.432978,-0.941841,0.32737,-0.451136,-0.920694,1.656764,1.761721,1.338357,-0.829742,1.61046,-0.504019,-1.12919,1.546492,-2.476814,-1.166793,1.045115,0.205919,0.242832,0.502661,-0.049329,-0.612862,-0.02045,-0.492757,0.489845,0.576257,2.742059,1.562775,-0.001914,-0.633302,-0.471649,-0.372415,-0.655777,0.148241,-0.61126,0.471377,0.15516,0.14672,0.260224,0.765097,-0.047359,-0.206796,-0.468677,0.530207,-0.182751,0.321246,1.344827,1.577238,1.773629,-0.639802,-0.911195,-1.969702,-0.900961,-0.414779,-0.973849,-1.112481,0.037246,0.224096,0.33607,-0.581307,1.071876,-0.48794,0.116128,0.363494,0.390788,AML
0.791468,-1.129801,0.79796,-0.417236,1.152938,-1.803307,0.279998,0.884331,0.779402,-0.610893,-0.49816,0.213707,0.151024,0.799747,0.662898,1.408443,-0.761975,0.823089,1.393923,-1.321952,0.960711,-1.66126,0.430351,1.306281,1.535599,1.257359,0.526179,-0.566709,-1.395793,-1.310911,0.603306,0.479046,0.145581,0.646037,1.080579,-2.186201,-0.674276,-0.786789,1.01311,-1.642371,-0.981318,0.482664,2.291158,1.131047,-1.767219,0.697215,-0.319357,-0.388994,0.53281,-0.673496,-0.856,0.160326,-1.163955,-0.304462,0.327762,1.341174,-0.07588,0.721372,-0.007323,-1.243859,0.787683,-0.05017,0.553164,-1.330219,-0.662468,0.024088,-0.63854,-1.083964,-0.016453,-0.699808,0.03894,-2.463169,-0.897024,0.504988,0.430566,-1.634046,-0.394171,-0.741035,-1.932345,0.548373,-0.984093,-0.395614,0.882837,-0.422651,-0.817209,-1.170556,-1.156463,-0.35306,-0.768738,-0.902554,-0.206937,-0.968926,-0.113924,-0.980397,0.407831,0.648145,-1.166249,1.622109,0.701085,0.161062,AML
1.642402,-1.063555,1.771148,-1.392626,0.96042,-1.516913,1.199684,0.085545,0.099462,-1.303475,-0.92848,1.505279,1.194369,0.326718,0.649513,1.363574,1.63949,0.926038,1.346553,-0.843794,1.233417,-0.119997,0.666487,1.061676,0.765161,0.388672,0.768984,-0.714888,-0.229311,-0.542778,0.926208,1.263089,0.795391,1.743168,0.415584,-1.40803,-0.743265,-0.639991,0.697648,-1.313056,-0.534833,1.0416,1.545863,1.338357,-0.944834,0.894648,-0.602809,-1.569769,2.024854,-0.596471,-0.656826,1.271864,-2.201695,-2.366382,1.59705,1.237316,-1.495517,0.752296,-0.365414,-1.109919,0.757366,0.596897,0.48711,-1.084097,-1.326151,-1.034732,-1.149896,-1.246228,0.023025,-0.637403,0.682763,-0.967954,-1.005647,0.721478,0.449285,-0.632992,-1.377484,-0.936982,-1.882648,0.713136,-0.810651,1.011753,0.581638,0.923138,-1.448574,0.530277,-1.258604,-0.532853,-0.867983,-0.825317,-1.032652,-0.906782,-1.265526,-1.235714,1.195924,0.158326,-1.203474,0.756413,0.765633,0.60898,AML
-0.579222,0.907123,-0.642001,0.972926,-0.665609,0.556106,-0.985727,-0.20953,-0.107054,0.189102,0.00581,-0.753647,-0.133585,-0.267647,-0.797257,-0.732278,-0.974912,-0.393783,-0.59274,-0.012962,-0.54049,-0.326464,-0.555119,-0.335265,0.110102,-0.185015,-0.136273,-0.060516,-0.987719,-0.480324,-0.13505,-0.678486,-0.088765,-0.986395,-0.756955,-0.350082,-0.683065,0.665854,-0.616189,1.225312,0.965738,-0.737927,-0.476964,1.02253,-0.425844,0.025524,-0.705289,1.382291,-0.929513,0.643727,0.652828,0.632534,0.377541,-0.349206,0.100903,-2.99243,-0.021305,0.301816,-0.091464,-0.426198,-0.184493,-0.973106,-0.035756,0.267836,0.177345,0.497546,0.317871,-0.648525,0.048828,0.592815,-0.232696,0.481408,-0.02262,0.661552,-0.069899,0.322718,0.033348,-0.527575,-0.150844,0.713136,-0.339166,-0.819447,-0.499555,-0.145415,0.019927,0.564675,0.324441,0.202757,0.745565,0.298845,0.28479,-0.044227,-0.426254,-0.144768,-0.096993,-0.246551,0.364656,-0.740949,-0.331315,-0.112752,ALL
0.122642,0.280044,-0.531807,-0.542871,-0.435045,0.017314,-0.59169,-0.259322,-0.349222,0.232727,0.437575,-0.557169,0.450913,-0.45557,-0.305891,-0.058072,0.426944,-0.538092,0.069526,-0.435663,-0.401831,0.260061,-0.339332,0.199267,-0.997654,-0.646386,0.312918,0.285815,-0.740232,-0.556738,0.122445,0.91363,-0.155718,0.653792,-1.58837,0.238796,-0.127219,0.0386,0.192932,-1.387361,-0.920694,-0.374977,-0.354646,-0.294249,-0.329386,-0.628673,-0.497541,-0.159124,-0.248855,1.370139,0.140592,0.249537,0.131205,1.089415,1.093877,0.027257,-0.006348,-0.594238,0.305514,0.354937,-0.374637,-0.195455,-0.51655,-0.406759,-0.966849,0.59727,-0.027438,-0.156757,-0.673806,0.232683,-0.241701,-1.284351,1.235438,-0.671761,-0.01233,0.501501,0.198752,0.016379,0.599721,-0.582987,0.294485,-1.07367,-0.472964,-0.958378,0.476196,0.409128,-0.85287,-0.371297,-0.285802,-0.492394,-0.282771,-0.225794,0.567485,0.571517,-0.430302,0.298972,0.878176,-1.154535,-0.47056,0.371015,ALL
-0.860661,0.318792,-0.598525,1.472397,-0.452864,0.119165,0.28979,-0.232489,-0.584538,0.807687,0.722595,-0.585583,-0.297249,0.037302,0.027734,-0.242515,-0.213931,-0.534266,0.64289,0.021717,-1.001043,0.638307,-0.290147,0.024336,0.612178,-0.453436,-0.628265,1.074045,0.556807,-0.79131,0.025293,-0.200545,0.224433,0.760469,0.101286,0.607185,0.28242,-0.050226,0.396876,0.133642,-1.187438,-0.298427,0.007853,-1.721261,1.070124,0.076332,0.55387,-0.260928,-0.364313,1.395228,-0.530498,0.192797,0.48903,-0.739256,0.172029,-0.911268,0.386465,0.646113,-0.169909,1.066097,0.465448,0.527153,-0.617559,0.268118,-0.111581,0.441759,0.489054,-0.58267,0.048828,1.736728,-0.136649,-0.583609,0.196677,0.606804,-0.514516,-1.340007,0.078775,1.225375,0.106123,0.773596,0.079491,-0.432431,-0.250177,0.346714,0.115164,-1.116832,-0.088914,-0.523001,-1.091204,-0.473973,0.535216,0.118356,0.453264,0.780195,-3.313518,0.277382,1.382624,0.005923,-0.351023,-0.18105,ALL
-0.782873,0.002734,-0.774584,-0.365395,-0.361666,-0.16948,-0.720691,-0.442704,-0.736161,-0.997219,-0.586904,-0.786247,-0.564143,-0.46676,-0.342483,-0.720967,-1.017405,-0.272308,-0.539177,0.891534,-0.806173,-0.917671,0.177347,0.040086,-0.245112,-0.308373,-1.118543,-1.725146,0.289228,0.95341,-0.7387,-0.699334,-1.695488,-0.102238,-0.533188,-0.572996,0.978173,0.550024,-0.11758,-0.288001,0.43598,-0.231892,-0.406972,-1.530485,0.432377,-0.063478,0.174113,1.523569,-0.138853,-0.132047,-0.756884,-0.096076,0.95995,-0.433181,-1.865934,-0.265722,-0.174343,-0.693817,-0.610077,-0.560491,0.115569,-0.928733,-0.345689,-0.241537,0.425538,0.22695,0.506965,0.701544,-0.602261,-0.478543,-1.832701,-0.744188,-1.64838,-0.620258,0.132906,-1.421406,-0.01017,-0.010931,-0.212125,-0.852773,-1.921303,-0.551652,-0.273305,-0.713266,0.044621,0.01464,0.045102,0.817433,-0.610803,1.696837,0.714569,0.693309,-0.487776,-1.783751,0.288156,0.051413,-0.056081,-0.009312,-0.173006,-0.225076,ALL
0.126366,0.826687,-0.477644,0.983398,-0.244589,0.212853,-0.947574,-2.020548,-0.203366,0.464281,0.3731,-0.311659,-0.089627,-0.524419,-1.319254,-0.337123,0.150399,-0.877897,-1.192674,-0.165081,0.543627,0.821807,-0.698153,-1.623839,-0.713404,-1.116523,-0.604664,1.223004,1.139423,1.752699,-0.096079,0.004147,-0.857365,0.856568,-0.646113,0.662635,-0.288721,0.812256,-0.115143,0.749061,0.804247,-0.797368,-0.347771,-0.000524,0.952794,-0.84876,1.092341,0.496118,-2.278349,-0.174718,1.308094,-0.868909,0.397379,0.22447,0.208123,-0.24921,0.750234,-0.462342,1.004642,0.39826,-1.865021,-0.999992,-0.012972,1.794538,-0.607998,1.486605,0.090746,0.069249,-0.316363,1.041422,0.125202,0.031161,0.495966,-0.485909,-0.090991,0.827708,-0.118821,1.205573,0.303064,-0.371492,0.716395,0.504944,-0.427021,-0.129264,1.002997,0.457102,0.657021,0.599367,0.01316,-0.492394,0.140773,-0.022437,1.025583,0.200457,-0.40444,-1.544428,0.044963,-1.00408,-0.145143,-0.144891,ALL
-0.571552,0.660324,-0.440553,1.376462,-1.664861,1.675192,0.443052,-0.183647,-0.611267,1.489125,1.633662,0.296211,-1.431753,-0.398658,0.161294,0.41651,0.495926,-0.33562,-0.733783,1.156093,-0.516003,0.458538,0.31071,-0.860277,-1.755261,0.000642,1.316423,0.788019,0.036132,1.697087,0.344793,-0.688329,-0.626116,-1.544808,-0.7287,1.794733,3.230776,-0.780933,-1.308269,2.190546,1.127664,0.702056,-0.251689,-0.181274,-0.564937,0.479735,-0.375286,-0.092141,0.07802,-0.227355,0.645243,0.165281,0.557426,1.040015,0.923536,-0.213676,0.660599,0.026766,1.587526,0.200846,-1.492411,0.639757,0.542048,0.287846,0.403103,0.70919,-0.326386,2.021048,-0.292299,-0.72487,0.770724,0.762927,2.076901,0.125179,1.443722,1.735498,3.324072,0.914179,1.41026,0.245097,2.080462,0.067815,-0.87653,-0.064019,0.259203,1.038169,0.411747,0.943598,2.122293,1.540996,2.714318,1.908465,1.022989,2.17493,-0.303832,0.002398,-0.468799,0.585612,1.117006,-0.399693,ALL
-0.650972,-0.207738,0.733574,-0.192126,-0.461852,-0.194406,0.158623,-0.061795,-0.427021,-0.481699,-0.374325,0.335163,-0.470849,-0.055522,-0.002164,-0.84721,0.014668,-0.07397,0.095773,-0.186326,0.161596,0.493242,0.590881,-0.408257,-0.295677,0.238461,-1.87135,-0.407612,-0.726393,1.268289,0.322807,-0.228454,-0.353294,-0.467115,0.49745,0.190804,0.485895,-0.941841,-0.735558,-0.38803,0.734469,0.778137,-0.357545,0.421541,-1.106917,-0.515201,0.230757,-1.063197,-0.953946,-0.69468,0.725632,-0.944288,-1.002539,1.188718,0.348946,-0.369579,0.254937,0.595957,1.373307,1.066097,-1.340387,-0.696924,0.573773,-0.465904,-0.016714,0.650156,-0.30122,1.026343,-0.260811,-0.749243,-0.561668,0.181103,1.331233,0.442855,0.933587,0.437345,1.642467,2.29839,1.709305,0.555948,-0.188647,1.6539,-0.248208,-0.402407,0.048676,1.01234,-0.445057,0.30208,0.924404,1.860363,-0.926574,0.492208,1.200866,0.953911,-0.502654,0.596331,0.893559,0.953121,0.636368,-0.550513,ALL
-0.571552,0.461059,-0.736033,0.084882,-0.29348,0.098768,-0.660487,-1.190815,-0.65539,1.209751,0.376206,-0.72675,-0.052458,-0.569262,-1.338953,-0.416901,-1.820982,-0.847493,-0.320096,1.047857,-1.809099,0.953284,-1.211057,-0.264641,-0.852097,-0.824505,-0.379004,0.546683,-1.310413,-0.613176,-1.121445,-0.591354,-0.216637,-0.143349,-0.44034,-0.31623,0.783411,0.081496,-0.666791,0.175241,-0.157947,-1.038019,-0.569886,-0.015608,1.615446,-1.682345,0.77701,1.303594,-0.983361,1.441537,-0.760101,-1.099375,0.901917,0.148567,-1.310542,0.233791,1.050172,-0.723722,-0.254142,0.311311,-0.329122,-0.236987,-0.555489,0.006503,0.611059,0.448712,1.331748,0.60689,-0.879246,-0.689641,-0.387795,-0.317764,0.899115,-0.827181,-1.393749,0.274029,-0.188546,0.313246,0.205952,-0.916624,-0.23163,-0.637445,-1.118226,-0.950604,0.923003,0.097441,0.251367,0.89829,-0.001408,-0.244481,-0.327316,-0.410128,0.671562,0.46405,-1.676613,-0.461795,1.107981,-2.41678,-0.904792,-0.320838,ALL
-1.084242,0.958957,-0.529335,0.644892,-0.561252,1.064775,-0.66409,-1.348167,-0.359211,0.470869,0.550455,-0.366689,-0.463043,-0.290451,-0.467972,0.104254,0.000917,-0.110184,-0.238719,0.840623,0.036899,1.297664,-0.578506,-1.03162,-0.09439,-0.240077,-0.447421,1.320049,0.584122,0.349056,-1.046184,0.194076,-0.371408,0.470412,-0.533188,0.783639,0.112776,0.9733,0.417396,1.043098,1.327223,-0.673185,-0.38108,-0.219753,0.90267,-0.275995,1.310683,0.447235,-0.57021,-0.146397,1.821625,-0.415006,0.25818,1.089415,-0.345609,-0.314603,1.317069,-2.329465,1.162128,0.503377,-0.304747,-1.081851,-0.048722,2.421163,0.279307,0.812233,-0.006671,0.299165,-0.53443,0.855642,0.029309,0.529139,0.855628,-2.582411,-0.431163,1.043217,0.133028,0.010573,0.194998,-2.520889,0.380513,0.719455,0.10104,-0.622458,1.61681,0.909802,1.976899,1.512191,0.668296,0.132633,-0.213228,0.725275,0.831516,1.090847,-0.437754,-0.424889,0.308883,-0.068459,-0.148244,-0.407909,ALL
1.687632,-1.756058,0.634997,-0.540041,0.489893,-1.478607,1.999261,2.055305,1.257453,-0.698206,-0.448586,2.289123,0.91422,2.492606,1.616075,0.765644,0.825148,1.415695,1.010754,-1.605336,1.279373,-1.604211,0.934341,1.392452,1.57809,2.880801,0.614673,-1.538134,-2.262304,-1.330077,2.284776,0.899947,-0.145522,-0.061837,2.059671,-1.261941,-0.552163,-0.761549,1.423189,-0.578907,-1.472717,2.783295,-0.184544,-0.223836,-1.488105,1.4733,-0.753664,-1.138864,1.20639,-0.877514,-2.224269,1.288932,-1.810999,-1.456685,2.452534,-0.977765,-0.118634,2.105924,-0.81648,-1.109919,1.963542,1.339409,1.944473,-0.363603,-2.917747,-0.196258,-0.241677,-0.341497,1.868629,-0.772996,1.2079,-1.156687,-0.614669,2.167179,2.287926,-1.271746,-0.100667,-0.692759,-1.546582,2.060918,-2.009055,0.874677,3.360375,-0.52883,-1.253312,-2.144456,-0.893099,-1.11747,-2.012065,-2.003116,-0.138135,-1.019558,-1.851497,-1.265525,-0.242633,1.321459,0.133676,1.739773,0.769597,-0.022381,AML
1.972437,-0.656714,1.150331,-1.957295,1.537785,-1.432678,1.869937,0.381975,0.525327,-1.083265,-1.702381,1.69251,2.266169,0.272625,-0.2384,3.250854,1.598085,0.090037,1.000236,0.075764,1.111097,0.540742,0.481005,0.728175,0.694521,1.261474,0.424914,0.455967,-0.72409,-0.285376,0.758158,0.05625,0.409402,2.292436,0.49745,1.21746,-0.768262,-0.485988,1.480486,-0.583792,-0.408766,0.797361,0.040924,2.766363,0.178994,0.861042,0.045866,-0.248145,-0.248855,-0.997753,0.266875,1.008458,-0.459044,-2.043426,1.28157,1.76168,-0.822279,-0.679212,-2.144797,-1.033796,0.425163,0.878019,0.141525,-1.428974,-0.324789,-2.791174,-3.191277,-0.584423,2.036997,-0.5537,1.391676,-0.496497,-0.274663,-0.900454,0.676224,-0.583942,-2.563873,-2.104491,1.072803,-0.537768,-0.796233,2.003093,-0.600676,1.964288,0.427516,0.668425,0.368145,-1.259825,-1.160134,-0.665716,-2.296433,-0.402778,-0.108939,0.028464,0.318466,-0.195266,-0.847043,0.997743,0.687084,1.097307,AML
1.264009,-1.451619,1.301145,-0.465395,2.266331,-1.249912,1.310085,1.429938,1.376728,-0.528701,-1.516816,1.027639,0.549265,1.530999,1.408612,1.483489,2.099883,1.389926,1.161965,-1.934584,1.80529,-0.881168,1.527287,1.3098,1.305469,2.166671,0.852278,-0.623823,-1.284843,-0.751524,0.430804,0.845016,1.036286,1.690425,1.184029,-1.031134,-0.910537,-2.74094,2.068264,-1.085841,-0.833258,0.842442,1.23327,1.440013,-0.50546,1.285771,0.03243,-0.556541,0.434054,-0.775384,-0.873063,1.378225,-1.18093,-0.81065,0.468141,1.266823,-1.127852,1.243429,-0.398331,-1.0598,0.643078,1.030247,1.326168,-0.396336,-0.351451,-0.814957,-0.63854,-0.152273,0.881114,-1.768219,1.981302,-1.01626,-1.655056,1.186975,1.108871,-0.839326,-0.118821,-0.885675,-0.090691,1.246041,-1.503297,1.17765,0.66514,1.123814,-0.827618,-0.756284,-0.584298,-0.623724,-0.299284,-0.537601,-1.152477,-1.57572,-0.813462,-1.369039,1.809701,0.750153,-1.163192,1.037901,1.025479,2.416869,AML
1.434501,-1.233288,1.046929,-0.994381,2.440065,-0.30999,1.640325,1.730346,2.135841,-0.565165,-1.273705,2.813273,1.501385,2.514461,2.013838,1.362785,2.121667,2.899903,1.664405,-1.827413,1.78699,-0.998924,2.334698,1.413417,1.083992,1.349243,0.121093,-1.414497,-0.779612,-1.010223,1.056588,1.709182,-0.254226,1.570909,2.512799,-1.616121,-0.672084,-0.824622,1.604871,0.182815,-0.767927,2.179839,1.094882,1.690223,-1.649704,2.642242,-1.960817,-0.61768,2.77143,-0.616286,-1.019462,1.445549,-1.338412,-0.552718,0.899796,2.113735,-1.274687,1.213229,-0.62939,-1.35644,2.803327,0.637611,1.271133,0.013404,-1.130797,-1.394813,-1.030231,-0.841629,1.198189,-0.710521,1.990979,0.405716,-0.883264,1.254549,2.075524,-1.313981,-0.626419,-1.311743,-0.811908,1.107736,-2.097244,0.510829,1.807533,1.605555,-1.067655,-0.635004,-0.468141,-0.999401,0.635681,-2.524465,0.06614,-1.25218,-1.57334,-1.755878,0.979179,0.725742,-0.682835,1.32801,3.093557,2.866254,AML
1.110005,-0.804807,0.93289,-2.162091,-0.031177,-1.432678,0.806574,0.074861,0.13571,-1.713637,-2.135938,0.960877,0.851944,0.415139,0.020706,-0.25226,0.592696,-0.151643,0.427993,-1.040528,0.373488,-1.439023,0.06061,-1.304365,0.259127,-0.065546,1.574086,-0.939245,-0.614492,-0.636783,0.378932,0.133298,1.673751,1.378777,0.632446,-0.182108,-1.502102,-0.666328,-0.086548,-1.283064,-1.812898,-0.357103,-0.272962,0.801525,-0.760267,-0.825695,-0.164664,-2.162663,-0.168384,-0.875715,-0.079535,-0.568774,-1.122213,-1.68515,-0.194412,1.031939,-0.980349,0.18439,0.057434,-1.183239,-0.491471,-0.783291,-0.345689,-1.009622,-1.583842,-0.748366,-0.423813,-0.750855,0.876997,-0.737345,0.669087,-1.410672,-0.80708,0.146425,0.245444,-0.833435,-1.053306,-0.427624,-1.485615,0.204157,-0.308718,0.782815,-0.936322,-0.198241,-1.620907,0.375815,-0.553198,-0.186787,-1.063206,-1.582607,-2.166439,-0.974967,-2.833124,-0.641698,-0.418872,0.426093,-1.138971,0.870086,0.038364,-0.18105,AML
-1.273421,1.173502,-0.31908,0.494028,-0.927232,-0.067753,-0.486421,-0.709971,-0.70539,0.392624,-0.116303,-0.242311,0.260553,0.136234,0.157681,-0.543761,-0.248507,-0.232798,1.127234,0.171116,-0.680158,0.095263,0.096954,-0.317378,0.717672,-0.402697,-0.709461,0.695493,1.369684,0.120939,-0.259973,-0.279414,-0.040312,-0.858496,-0.389692,0.310771,0.475872,0.208969,-0.735558,-1.013598,-0.151218,-0.192916,-0.079567,0.434505,0.959039,-2.55187,1.318569,1.063807,-2.33822,1.40875,0.691799,-0.841644,1.299065,0.446308,0.196974,-0.755757,0.161387,0.811855,0.424362,0.549566,-0.100645,-0.815428,0.480985,-0.075416,-0.697456,0.361764,0.673618,-0.367019,-1.559609,0.842892,0.007933,0.230883,0.012736,0.772445,-0.028937,0.342986,-0.09845,0.113606,0.060823,0.729422,-0.454008,-1.522019,0.147346,0.859729,0.494521,0.305357,0.678523,0.046422,-0.455836,0.122963,0.671051,-0.082758,0.350095,0.32948,-0.503484,0.437634,0.200413,-0.646384,0.014285,-0.338116,ALL
-0.158237,1.337492,-0.514746,1.644408,-0.175977,1.638123,-0.349226,-1.17232,-0.100238,1.983151,1.577369,-0.564244,0.277622,-0.679709,-0.028604,-0.456711,-0.883759,-0.118371,-0.311069,0.860946,-0.856533,1.871671,0.070992,-0.408257,-0.104184,-0.19995,0.013581,1.622377,1.584822,0.162961,0.047389,0.138391,-0.307599,-0.740954,-1.160123,1.069677,0.034058,0.892812,0.096875,0.742608,1.582621,0.699878,-0.475358,0.021949,1.14907,0.65901,0.73602,1.41818,0.53281,1.335395,1.010116,0.358306,0.447338,1.603869,-0.017582,-0.527695,1.48342,-1.576266,1.995916,2.623165,-0.277012,-0.623104,-1.943899,0.42883,0.483966,0.792372,0.596763,-0.115137,-0.260811,2.092612,0.677304,2.773189,1.376526,-1.544347,-0.172095,1.403565,0.198752,1.559633,2.076655,-1.836914,0.82605,-1.098902,-0.241007,-0.871882,1.428806,1.065567,2.275958,1.945507,1.370784,1.114913,0.13599,1.652024,2.029908,1.720225,-0.501004,-0.897328,1.818457,1.340639,-2.391789,0.323997,ALL
-0.040077,0.134694,-0.598525,0.077105,0.715961,1.668235,0.35962,0.185939,0.391686,-0.698945,-0.675046,-0.373347,-0.744861,-0.036593,0.294402,-0.361903,-0.555548,0.711897,0.618316,1.048818,1.073212,-0.508326,0.290368,0.180722,-1.701375,1.307479,-0.541953,-0.532309,0.079531,-0.603247,0.250583,-0.366818,-1.388658,-0.712902,-0.872702,-0.91876,-0.110468,-0.641818,0.381232,1.608988,-0.356034,0.958757,-0.433587,-0.543349,-0.538606,-0.065776,-1.423366,-0.818093,0.333082,-1.003173,0.97063,0.872998,-0.757456,0.212096,-0.418335,-0.174481,-1.725709,0.441685,-0.470666,-0.484491,0.261264,0.591744,1.315491,-0.144095,0.400291,-0.479627,-0.971532,0.311154,0.178155,-0.603899,-0.280513,-1.658238,-0.199928,0.445873,0.778885,-1.478679,0.483278,-0.548932,0.22776,0.485545,-0.265826,0.235915,0.184217,-1.265178,0.393727,-0.090664,-0.081437,-0.095683,0.814296,1.478151,-1.239315,0.128604,0.636475,-1.701698,0.877955,0.40986,-0.794184,0.492188,0.063016,-0.179312,ALL
-0.118807,0.590549,-0.459925,0.0535,-0.422824,1.067492,-2.292777,-0.151217,-0.495449,0.194006,0.437575,-0.680299,-0.957805,-0.779367,-1.108189,-0.640737,-0.954134,0.498858,-0.405129,1.287369,-0.177206,0.440567,-0.446639,0.060961,-0.484588,0.508673,-0.1046,-0.520531,0.444774,0.834513,-1.080809,-0.349054,-0.267827,0.283878,-0.606428,-0.118991,0.544074,1.11041,-0.372025,0.838845,1.086352,-0.74605,-0.522114,-0.517973,0.67172,-0.0205,0.072636,1.255306,0.732388,-0.249812,0.406058,0.51014,1.575723,-0.295669,-1.70553,-0.123442,0.741875,-1.466089,0.039534,-0.316659,0.250582,-1.364027,-0.102957,0.573778,1.722757,0.289676,1.159072,-0.140346,-0.155512,0.273455,-0.889328,0.771349,-0.196011,-1.106616,-0.30633,-0.781632,0.311446,-0.633743,0.687315,-1.177053,1.094064,-0.854036,-0.106035,-0.917239,-0.390092,1.180273,0.527541,2.771366,0.982362,0.832042,0.42887,0.594006,0.350095,-0.768973,-0.395523,0.414827,-0.28254,0.604176,-0.252207,-0.26117,ALL
0.455742,0.554843,-0.438434,0.442376,-0.232206,-0.105017,-0.756446,-0.658774,-0.064131,0.892377,0.905755,0.140175,0.384463,-0.044096,0.40883,0.546859,-1.164843,1.003345,1.2677,-0.406492,0.306628,0.511709,-0.187073,0.226689,0.706164,0.2128,-0.499618,0.563087,0.145231,0.857899,0.091934,0.076921,-0.100296,-0.051843,0.40873,-0.059305,-0.091928,0.822464,0.318199,0.559147,1.417654,-0.103717,-0.333078,-0.3688,0.832323,0.544279,0.637046,0.940686,-0.279743,-0.058446,1.098885,0.088567,0.569928,1.80287,0.076329,-0.270251,1.059718,0.398851,1.080485,0.570632,0.141489,0.158766,0.296588,1.48722,-0.016714,2.176899,0.508589,-0.047816,0.477811,0.667488,-1.48192,1.048786,0.820732,0.438616,0.09404,1.474749,0.410033,0.860771,0.418357,0.392334,0.599893,0.060234,0.412312,-0.604737,1.004603,-0.415634,0.991543,1.192754,1.477038,-0.341238,0.054943,0.018661,0.69041,0.75645,-0.503484,0.426093,0.196633,-0.951591,0.657918,0.052189,ALL
-0.483761,-0.675141,-0.529335,0.161905,-0.372815,0.975795,-0.167454,-0.139387,-0.660391,0.889097,1.131666,-0.899113,-0.45531,-0.131855,-0.282225,-0.610736,-0.49608,-0.805777,-0.560754,-0.140319,-1.016334,-1.048253,-0.467104,0.01459,-0.127424,-0.368774,0.431916,-0.325531,0.34937,-0.219017,-0.966163,-0.678486,-0.242077,-0.699056,-0.043325,1.229486,1.813894,-0.699116,-0.984025,1.081916,-1.406737,-0.252372,-0.555837,-0.057523,-1.256364,-1.384939,-1.027097,-0.322419,-0.419039,-0.380066,-1.158726,-0.479159,-0.726244,0.193332,-0.862137,0.070808,-0.550636,-0.06378,-0.000083,-0.479794,-1.664614,0.747641,-0.140425,-0.460076,-0.07868,-0.620879,-0.517251,0.317802,-0.324473,-0.442098,0.715202,0.514281,0.503995,-0.272804,-0.756956,-0.007744,0.72612,-0.64798,0.570082,0.056846,1.30657,-1.6539,-0.709156,0.046361,-0.766947,-0.380228,-0.749217,0.076937,0.925024,1.460019,0.280231,0.580914,0.07026,0.162858,-0.271099,0.257311,-0.048758,0.409512,1.083411,-0.469884,ALL
-1.381565,1.415731,-0.575988,1.688868,-0.096567,0.590568,-0.033924,-0.272192,-0.490985,1.387546,1.46421,-0.225149,-0.317798,-0.396234,0.074112,-0.013543,-1.683651,-0.207613,-0.04846,1.024654,0.521596,1.238369,-0.075172,-0.689857,-0.665426,-0.277614,0.10611,1.178125,1.065322,1.412385,-0.007505,-0.372774,-0.26063,0.387106,-1.222318,1.231657,0.146411,0.92661,0.590459,1.084987,1.591798,0.356747,-0.43186,-1.265506,1.08686,0.475109,1.124288,1.081489,-0.290134,1.11611,1.729508,-0.322082,1.110215,1.637143,-0.033791,-1.037662,1.277717,-0.963717,1.376389,1.547407,0.291262,0.564507,-0.231292,1.556466,1.021161,1.518069,0.569737,1.052106,-0.749634,1.158696,0.103095,1.338169,1.296138,-1.23219,-0.435999,1.469753,0.270265,2.396105,0.428663,-0.870253,0.478019,0.158689,0.472702,-0.352578,1.411103,0.443152,1.564644,0.915354,0.852207,0.741592,0.455571,0.337511,1.49011,0.899074,-0.568482,-0.850004,2.171508,-0.448405,-0.180939,-0.298158,ALL
-0.396571,2.232537,-0.495894,1.212169,-0.162696,2.332068,0.120639,-0.224046,-0.117687,1.45821,2.564779,0.582705,-1.494081,-2.974705,0.092522,-0.506996,-1.176821,0.198951,-1.5702,1.486251,0.203853,2.010384,-0.943072,-0.062519,-0.47975,-0.947134,1.027799,1.591873,1.244168,1.406079,-2.037262,-0.14004,-0.246079,-1.226631,-0.522757,1.560471,1.806691,1.490379,0.103087,1.204564,2.126659,-0.951272,-3.1512,-0.10595,1.978001,0.701101,1.514568,1.687812,0.220861,2.133404,2.136332,0.783699,2.348164,2.549987,1.082315,-0.446086,2.597462,-0.686973,2.264255,2.284474,0.19992,0.98275,-1.149715,2.021671,1.538023,1.440347,2.039581,3.406166,-0.332629,-0.071146,-0.377974,1.883761,2.309217,-0.565981,-0.383889,2.405209,0.940218,1.388818,1.709305,-0.715222,1.647356,-0.490976,-0.333514,0.186448,2.456046,2.047606,1.757706,1.07589,1.746316,2.097285,1.561437,1.831536,2.563753,1.111646,-0.482938,-0.334375,1.535829,-1.553983,-1.264869,-0.383462,ALL
-0.258916,-0.441079,-0.484422,-0.316827,-0.240248,-0.050275,-0.630863,-1.504319,-0.831161,0.48397,0.400924,-0.672868,0.43989,-0.850998,-0.470317,-0.472138,-0.378729,-1.194311,0.449789,-0.997808,-1.731458,-0.140829,-1.632303,-0.715241,-0.83799,-0.567384,-0.89849,-0.193249,0.731082,1.666604,-0.339646,-0.850406,-0.333775,-1.544808,-0.13216,-0.240888,-0.550068,0.749499,-0.388716,0.037165,0.101325,-1.008955,-0.436309,-0.141365,1.267462,-0.697478,1.203868,1.269302,-0.452681,0.214529,-0.556224,-0.872346,1.179837,0.082103,0.094458,0.065734,-0.310091,-1.144273,0.514782,0.738796,-0.869103,-0.940409,-1.298649,-0.412489,-0.460085,0.219112,0.416407,-0.7413,-0.300277,1.0964,-1.159162,-0.009393,-0.394677,-1.863858,-0.813125,-0.21314,-0.27993,-0.377159,-0.751946,-1.152577,0.210356,-0.074036,-0.792885,-0.976628,-0.321982,-0.16684,0.700005,0.397934,-0.217487,0.749603,-0.696168,0.088984,-0.860301,-0.205844,1.354377,-0.823139,-0.564954,-0.359578,-1.193935,0.420262,ALL
0.289238,-0.63182,1.288704,-1.346892,0.549195,-1.182209,0.218081,0.24895,0.949319,-0.929663,-1.024516,0.170086,1.891252,1.602791,0.733704,1.631722,0.2407,0.863876,1.598536,-0.752716,-0.223866,-0.930474,-0.183218,0.893155,1.139125,0.91868,0.963556,0.174052,-2.454271,-1.378048,0.08189,1.498877,2.589382,0.59122,1.617036,-1.112351,-0.46541,-0.841166,0.557626,-1.194832,-2.370379,0.01495,2.973499,-0.067139,-0.544207,1.114888,-0.491273,-1.253894,1.126138,-0.600676,-1.275155,0.346614,-0.726244,-0.090981,0.550902,-0.609557,0.41164,0.752533,-0.855884,-0.565296,0.882773,1.417351,1.56204,-1.188524,-1.16806,-0.085498,-0.789429,-0.316202,0.385048,-0.713298,0.550276,-1.110667,0.33477,0.186256,-0.703223,-0.050461,0.022174,-0.506883,-0.650035,0.452587,-0.23637,0.412172,1.606228,1.302049,-0.904211,-0.911195,-1.586002,-0.865424,-1.598678,-1.212951,0.280231,-0.154525,0.383932,-0.853731,-0.453943,0.658412,-0.556874,-0.464352,0.248078,0.27346,AML
0.800066,-0.841519,1.272657,-1.460502,0.586045,-0.595581,0.05776,1.541925,0.458618,-1.521156,-0.685108,0.14517,0.81017,0.696912,0.909356,1.369097,0.466303,0.827985,0.767282,-0.493289,0.348016,-1.435423,0.395813,1.037677,0.536246,0.706757,0.548104,-1.504987,-1.236631,-0.84374,0.924881,0.450153,1.810506,0.856568,-0.021382,-0.167666,-0.711855,-0.848724,0.111935,-0.225711,-0.660858,0.511233,0.311998,-0.647607,-1.179516,0.180403,-1.489302,-0.021902,0.324559,-2.048812,-1.679609,0.893693,-1.401715,-1.97069,1.270784,1.197648,-2.094014,0.395229,-1.656079,-0.865446,0.93469,0.803078,0.523858,-1.778686,-1.02031,-0.694649,-0.253787,-1.481576,0.784329,-3.057285,-0.037612,-1.213486,-1.277707,0.289842,0.200173,-1.145278,-0.025793,-0.264514,-1.787149,0.27131,-0.605077,-0.135367,0.854259,-0.724886,-1.270849,-1.139382,-1.345689,-2.960637,-1.053965,-0.354645,-0.449178,-0.143004,-0.618339,-0.502769,1.082775,2.324816,-0.722776,0.567968,1.083411,0.019143,AML
0.854655,-1.950625,1.013747,-1.268181,0.657624,-1.686867,0.404965,0.295695,0.325844,-1.32496,-1.572034,0.715393,0.162677,0.505505,1.044536,0.55396,2.041413,0.765974,1.109818,-1.070824,1.485638,-1.334493,0.596017,1.726968,1.761477,0.653076,0.527552,-1.591785,-0.731003,-0.713462,0.591846,0.53648,1.14361,0.80516,0.917534,-0.959841,-1.146215,-0.802994,0.566449,-1.169675,-1.432837,0.298165,2.014746,0.703716,-0.864671,1.205654,-0.274852,-1.09457,0.894513,-0.80739,-1.470471,0.508478,-0.724034,-0.414121,0.123975,1.187058,-1.16653,0.924294,-0.610077,-1.363645,0.920556,0.260992,0.383062,-0.924246,-0.584676,-0.661773,-0.702114,-0.355824,0.042415,-0.717546,1.012486,-1.561167,-1.655056,0.721478,1.096337,-1.623089,-2.520739,-0.870059,-1.957726,0.895717,-1.416236,0.587493,0.15062,0.669622,-1.345043,-1.302502,-1.048101,-0.389686,-1.119622,-0.761074,-1.139139,-1.487957,-1.255253,-2.063382,2.539216,-0.406583,-2.25708,0.33426,1.378821,0.662248,AML
1.576328,-0.825647,1.729087,-0.782708,0.246977,-1.311981,0.998288,0.918582,-0.027681,-0.464071,-0.715638,1.223795,0.266249,0.442215,0.927472,0.484329,0.801366,0.913541,0.916668,-1.060658,0.709821,-0.748287,1.244938,1.062116,1.098794,0.295843,1.253982,-1.53645,-0.747163,-0.662787,1.145267,1.192322,1.247409,0.699936,0.619022,-0.719007,-1.119098,-0.865933,0.455787,-1.294995,-1.343104,0.867188,0.791886,1.009056,-0.661204,1.478609,-0.550404,-1.505702,0.7167,-0.6293,-0.747265,1.28269,-1.07338,-0.911001,1.765757,1.608901,-1.211637,1.387925,-0.470666,-2.577445,0.966034,1.189123,-0.241333,-0.639679,-1.036988,-0.915779,-1.101681,-0.711083,0.347685,-0.585271,1.288592,-1.604769,-1.020915,0.910413,0.741274,-0.482431,-1.156504,-0.607823,-0.262004,1.229152,0.68421,0.594981,-0.199014,0.722914,-2.106832,-0.857817,-0.330315,-1.305288,-0.266368,-1.350284,-1.393508,-1.608561,-0.813462,-0.917977,0.192035,-0.370272,-0.656788,1.353188,0.892622,1.052989,AML
1.302823,-1.838636,1.695687,-0.563595,1.848888,-1.001596,1.932799,2.056938,2.756452,-0.551797,-1.365324,2.69142,0.75765,2.156866,2.108316,1.320053,1.241052,2.185972,1.6171,-0.972102,1.801737,-0.323132,2.40723,1.02374,2.113578,1.801109,0.638914,-1.432586,-0.582873,-1.045088,1.88265,1.933222,0.111008,1.301927,0.612304,-0.980025,-2.732599,-1.167964,2.160546,-0.737253,-0.462934,2.69062,0.814999,1.208328,-0.355352,1.753343,-0.9546,0.433242,2.103276,-0.596005,-1.150696,1.954779,-1.376118,-1.254666,1.575582,2.189796,-0.467874,2.146185,-1.358149,-0.812743,1.982713,1.524072,1.802348,-0.845592,-0.584676,-1.342115,-0.23008,-1.262768,0.599577,-0.758499,2.298593,-0.123265,-1.383029,2.198102,2.066911,-2.137577,-1.03473,-2.183843,-1.049635,2.107268,-0.578068,1.738289,2.552751,2.102681,-0.738118,-1.077408,-0.277133,-0.807704,-0.622488,-0.324653,-1.447297,-0.541067,-1.328674,-1.201603,2.212712,1.581349,-0.390893,1.484207,1.47463,4.104746,AML